DIMACS_lns/graph-1000-200.col
p edge 1000 1855
e 1 167
e 1 930
e 1 465
e 1 532
e 1 414
e 1 999
e 1 860
e 1 206
e 2 679
e 2 572
e 2 543
e 2 823
e 3 475
e 3 277
e 3 970
e 3 771
e 3 471
e 5 357
e 5 372
e 5 295
e 5 157
e 5 761
e 5 924
e 6 630
e 6 270
e 6 297
e 7 968
e 7 535
e 7 995
e 7 407
e 8 766
e 8 707
e 8 333
e 8 472
e 8 35
e 8 51
e 9 793
e 9 759
e 9 303
e 10 659
e 10 600
e 10 673
e 11 822
e 11 571
e 11 352
e 11 437
e 11 852
e 12 239
e 12 812
e 12 65
e 12 92
e 12 751
e 13 462
e 13 747
e 13 25
e 15 37
e 15 988
e 15 139
e 16 974
e 16 78
e 16 305
e 16 547
e 17 400
e 17 90
e 17 250
e 17 361
e 17 458
e 17 478
e 18 625
e 18 91
e 18 248
e 19 672
e 19 726
e 19 292
e 20 923
e 20 599
e 20 331
e 20 540
e 20 391
e 21 32
e 21 319
e 21 202
e 21 885
e 21 914
e 21 531
e 22 222
e 22 813
e 22 458
e 22 931
e 23 333
e 23 437
e 23 368
e 24 261
e 24 836
e 24 247
e 24 158
e 24 559
e 25 885
e 25 192
e 25 475
e 25 555
e 25 512
e 25 667
e 26 360
e 26 889
e 26 310
e 26 173
e 26 59
e 26 746
e 26 167
e 27 718
e 27 145
e 27 964
e 27 505
e 29 598
e 29 178
e 29 328
e 29 951
e 29 275
e 30 913
e 30 132
e 30 39
e 30 38
e 30 518
e 30 202
e 31 437
e 31 548
e 31 654
e 31 863
e 31 813
e 31 633
e 31 880
e 31 299
e 32 466
e 32 810
e 32 364
e 32 410
e 32 78
e 32 979
e 33 552
e 33 899
e 33 145
e 33 936
e 34 473
e 34 340
e 34 648
e 34 345
e 34 208
e 34 978
e 35 281
e 35 834
e 36 386
e 36 666
e 36 838
e 36 847
e 37 549
e 37 568
e 37 405
e 37 475
e 37 524
e 37 769
e 37 826
e 37 469
e 38 73
e 38 115
e 39 570
e 39 342
e 39 484
e 39 116
e 39 320
e 40 810
e 40 938
e 40 974
e 41 344
e 41 158
e 41 270
e 42 844
e 42 654
e 42 755
e 42 742
e 44 74
e 44 150
e 44 555
e 44 90
e 44 458
e 44 546
e 44 118
e 44 279
e 45 645
e 45 729
e 45 282
e 45 447
e 46 869
e 46 579
e 46 818
e 46 859
e 47 368
e 47 952
e 47 926
e 47 870
e 47 78
e 48 978
e 48 652
e 48 110
e 48 814
e 48 698
e 49 240
e 49 143
e 49 56
e 50 898
e 50 910
e 50 647
e 51 180
e 51 960
e 51 643
e 51 472
e 53 880
e 53 257
e 53 792
e 54 385
e 54 226
e 54 680
e 54 635
e 54 453
e 54 383
e 55 483
e 55 651
e 55 110
e 55 839
e 56 427
e 56 670
e 56 616
e 56 241
e 56 679
e 56 885
e 56 761
e 58 471
e 58 616
e 58 464
e 58 494
e 58 588
e 58 516
e 59 553
e 59 466
e 60 980
e 60 499
e 60 108
e 60 285
e 60 477
e 60 562
e 61 213
e 61 571
e 61 713
e 64 868
e 64 106
e 64 716
e 64 656
e 64 158
e 64 234
e 65 214
e 65 584
e 66 591
e 66 672
e 66 483
e 66 555
e 66 484
e 67 429
e 67 293
e 67 792
e 67 938
e 67 154
e 67 728
e 68 333
e 68 537
e 68 889
e 68 644
e 68 522
e 68 292
e 68 701
e 69 327
e 69 357
e 69 114
e 72 181
e 72 552
e 72 746
e 72 532
e 72 845
e 72 343
e 72 591
e 73 922
e 73 360
e 73 454
e 73 604
e 74 826
e 74 742
e 74 753
e 74 457
e 74 529
e 77 637
e 77 888
e 77 950
e 77 974
e 77 969
e 78 95
e 78 237
e 78 898
e 78 608
e 79 792
e 79 102
e 79 695
e 79 582
e 79 580
e 80 671
e 80 812
e 80 766
e 81 543
e 81 381
e 81 115
e 81 811
e 82 852
e 82 701
e 82 293
e 82 877
e 82 239
e 85 276
e 85 218
e 85 922
e 86 765
e 86 652
e 86 94
e 88 832
e 88 386
e 88 538
e 88 891
e 89 336
e 89 789
e 89 423
e 90 223
e 90 355
e 90 104
e 90 509
e 91 116
e 91 201
e 91 830
e 91 417
e 91 811
e 91 108
e 92 531
e 92 926
e 94 148
e 94 737
e 94 117
e 95 192
e 95 448
e 95 531
e 95 847
e 96 852
e 96 320
e 96 275
e 96 119
e 97 982
e 97 368
e 97 426
e 97 381
e 98 165
e 98 411
e 98 453
e 98 192
e 98 972
e 98 626
e 99 636
e 99 290
e 99 235
e 99 563
e 99 593
e 100 624
e 100 651
e 100 875
e 100 524
e 100 677
e 101 126
e 101 529
e 101 377
e 101 241
e 101 877
e 102 510
e 102 784
e 103 363
e 103 711
e 103 895
e 103 905
e 103 341
e 103 241
e 104 657
e 104 722
e 104 243
e 105 564
e 105 233
e 105 850
e 106 624
e 106 289
e 106 311
e 106 332
e 106 775
e 106 144
e 107 487
e 107 640
e 107 701
e 108 373
e 109 259
e 109 332
e 109 431
e 109 319
e 109 471
e 110 998
e 110 267
e 111 124
e 111 336
e 111 645
e 112 231
e 112 169
e 112 309
e 114 529
e 114 337
e 114 442
e 115 237
e 115 813
e 115 952
e 115 394
e 116 466
e 116 593
e 116 252
e 117 192
e 117 696
e 118 442
e 118 795
e 119 750
e 119 965
e 119 358
e 120 980
e 120 599
e 120 872
e 120 596
e 120 697
e 121 380
e 121 375
e 121 222
e 121 654
e 121 927
e 122 828
e 122 141
e 122 931
e 122 612
e 122 300
e 123 765
e 123 608
e 123 766
e 124 567
e 124 699
e 124 719
e 124 649
e 125 523
e 125 543
e 125 198
e 125 982
e 125 724
e 125 567
e 125 377
e 126 510
e 126 918
e 126 327
e 126 371
e 126 818
e 126 579
e 126 376
e 126 677
e 129 781
e 129 255
e 129 845
e 129 562
e 129 806
e 130 972
e 130 514
e 130 635
e 131 170
e 131 336
e 131 589
e 131 722
e 132 311
e 132 870
e 132 604
e 132 146
e 132 167
e 132 823
e 132 999
e 132 630
e 132 660
e 132 271
e 135 622
e 135 659
e 135 435
e 137 317
e 137 266
e 137 741
e 137 589
e 138 679
e 138 992
e 138 304
e 138 997
e 139 613
e 139 562
e 140 289
e 140 399
e 140 518
e 141 457
e 141 665
e 141 765
e 141 366
e 141 512
e 142 895
e 142 205
e 142 230
e 143 701
e 143 252
e 144 967
e 144 791
e 144 871
e 144 294
e 144 469
e 145 508
e 145 600
e 145 971
e 146 855
e 146 844
e 146 783
e 146 354
e 146 406
e 146 379
e 147 719
e 147 583
e 147 716
e 147 447
e 148 738
e 148 344
e 148 411
e 148 200
e 148 819
e 148 240
e 148 917
e 148 579
e 149 719
e 149 443
e 149 178
e 149 253
e 149 968
e 150 531
e 150 589
e 150 282
e 150 666
e 150 250
e 151 621
e 151 367
e 151 633
e 152 871
e 152 699
e 152 276
e 152 155
e 153 360
e 153 489
e 153 455
e 153 709
e 154 357
e 154 924
e 154 873
e 154 317
e 154 372
e 155 405
e 155 537
e 155 538
e 155 927
e 155 591
e 155 359
e 155 183
e 155 435
e 156 624
e 156 368
e 156 688
e 156 429
e 156 501
e 156 423
e 157 227
e 157 805
e 157 620
e 158 923
e 158 844
e 158 510
e 158 439
e 162 659
e 162 521
e 162 854
e 162 192
e 162 326
e 162 491
e 163 177
e 163 586
e 163 945
e 163 242
e 165 511
e 165 730
e 166 966
e 166 796
e 166 821
e 166 377
e 167 977
e 167 682
e 167 863
e 169 403
e 169 731
e 169 693
e 170 553
e 170 737
e 170 273
e 172 466
e 172 775
e 172 604
e 173 351
e 173 620
e 173 242
e 173 820
e 173 499
e 174 818
e 174 490
e 174 466
e 174 563
e 176 379
e 176 231
e 176 596
e 176 262
e 177 496
e 177 515
e 177 540
e 177 942
e 177 833
e 178 823
e 178 931
e 178 661
e 179 203
e 179 384
e 179 933
e 179 798
e 180 310
e 180 316
e 181 345
e 181 495
e 183 230
e 183 639
e 185 297
e 185 345
e 185 500
e 185 205
e 186 629
e 186 266
e 186 942
e 187 252
e 187 242
e 187 943
e 187 444
e 190 928
e 190 238
e 190 217
e 190 919
e 190 547
e 192 711
e 193 250
e 193 240
e 193 998
e 195 201
e 195 899
e 195 717
e 198 624
e 198 716
e 198 691
e 198 740
e 198 364
e 199 721
e 199 582
e 199 795
e 200 437
e 200 631
e 200 241
e 200 988
e 200 753
e 201 309
e 201 501
e 202 909
e 202 872
e 202 458
e 203 381
e 203 251
e 204 358
e 204 749
e 204 326
e 205 279
e 205 524
e 205 331
e 205 847
e 206 899
e 206 637
e 208 567
e 208 291
e 212 226
e 212 991
e 212 939
e 212 444
e 213 253
e 213 320
e 213 901
e 213 888
e 214 518
e 214 666
e 214 778
e 214 314
e 217 886
e 217 505
e 218 872
e 218 758
e 222 546
e 222 626
e 222 292
e 222 753
e 222 309
e 223 773
e 223 823
e 223 897
e 223 692
e 223 807
e 223 730
e 223 798
e 224 913
e 224 230
e 224 609
e 225 945
e 225 846
e 225 518
e 226 675
e 227 588
e 227 841
e 227 524
e 227 709
e 227 361
e 228 604
e 228 998
e 228 235
e 228 488
e 228 417
e 228 461
e 230 748
e 230 390
e 230 796
e 230 406
e 231 833
e 231 238
e 231 901
e 231 235
e 231 288
e 233 684
e 233 813
e 233 801
e 234 951
e 234 892
e 235 691
e 235 584
e 236 342
e 236 929
e 236 797
e 236 604
e 236 923
e 237 647
e 237 747
e 238 505
e 238 831
e 238 381
e 238 518
e 238 773
e 239 755
e 239 361
e 240 833
e 240 784
e 240 543
e 241 799
e 241 378
e 241 735
e 241 293
e 241 380
e 242 553
e 242 688
e 243 376
e 243 274
e 243 545
e 243 393
e 244 441
e 244 998
e 244 495
e 245 410
e 245 437
e 245 840
e 245 600
e 246 564
e 246 380
e 246 550
e 246 359
e 247 796
e 247 875
e 247 478
e 248 892
e 248 507
e 248 728
e 249 312
e 249 361
e 249 682
e 250 796
e 250 565
e 250 750
e 250 726
e 250 963
e 250 328
e 250 918
e 251 468
e 251 423
e 251 887
e 251 830
e 251 582
e 252 450
e 252 608
e 252 857
e 252 758
e 252 909
e 253 485
e 255 895
e 255 730
e 255 883
e 255 389
e 255 395
e 255 629
e 255 477
e 255 812
e 256 458
e 256 741
e 256 541
e 257 846
e 257 637
e 257 678
e 258 530
e 258 609
e 258 998
e 259 457
e 259 451
e 261 336
e 261 394
e 261 718
e 261 740
e 261 701
e 261 735
e 262 813
e 262 831
e 262 409
e 262 432
e 263 971
e 263 274
e 263 430
e 266 431
e 266 598
e 266 720
e 267 797
e 267 854
e 268 518
e 268 993
e 268 859
e 268 312
e 270 744
e 270 959
e 270 950
e 271 690
e 271 475
e 271 726
e 271 717
e 273 966
e 273 583
e 273 811
e 274 989
e 274 911
e 274 711
e 275 367
e 276 678
e 276 370
e 276 840
e 276 659
e 277 454
e 277 967
e 277 643
e 279 513
e 279 638
e 279 936
e 279 982
e 279 996
e 281 293
e 281 473
e 281 740
e 282 708
e 282 789
e 284 911
e 284 529
e 284 885
e 285 494
e 285 688
e 285 553
e 285 657
e 285 447
e 285 741
e 285 599
e 285 765
e 286 969
e 286 304
e 286 832
e 286 347
e 286 801
e 287 734
e 287 395
e 287 722
e 288 916
e 288 609
e 288 958
e 289 573
e 289 471
e 289 928
e 290 873
e 290 645
e 290 594
e 291 357
e 291 374
e 293 859
e 293 298
e 293 710
e 293 718
e 293 661
e 293 481
e 293 979
e 294 670
e 294 707
e 294 976
e 294 679
e 295 837
e 295 883
e 295 347
e 297 522
e 297 371
e 297 594
e 298 600
e 298 613
e 299 914
e 299 825
e 299 723
e 299 824
e 299 391
e 299 497
e 299 666
e 300 864
e 300 500
e 302 644
e 302 382
e 302 513
e 303 773
e 303 996
e 303 641
e 303 392
e 303 430
e 303 574
e 304 452
e 304 713
e 305 444
e 305 884
e 305 629
e 306 512
e 306 381
e 306 599
e 306 523
e 309 363
e 309 511
e 309 319
e 310 347
e 310 538
e 310 978
e 310 980
e 310 923
e 311 986
e 312 528
e 312 870
e 312 919
e 312 564
e 313 457
e 313 506
e 313 847
e 313 836
e 313 828
e 313 941
e 313 690
e 313 850
e 314 681
e 314 567
e 315 604
e 315 821
e 315 692
e 315 551
e 315 375
e 316 640
e 316 747
e 317 821
e 317 925
e 317 629
e 317 687
e 317 979
e 317 359
e 319 670
e 319 636
e 321 441
e 321 572
e 321 434
e 321 709
e 321 500
e 321 377
e 322 775
e 322 345
e 322 588
e 322 958
e 325 716
e 325 799
e 325 925
e 325 855
e 326 572
e 326 942
e 327 943
e 327 554
e 327 939
e 327 530
e 328 938
e 328 945
e 328 898
e 328 789
e 331 755
e 331 973
e 331 838
e 331 565
e 332 365
e 333 596
e 333 375
e 333 546
e 333 482
e 333 951
e 336 667
e 336 664
e 336 763
e 336 584
e 336 747
e 337 500
e 337 468
e 337 847
e 337 456
e 337 716
e 339 708
e 339 625
e 339 680
e 339 439
e 340 798
e 340 713
e 340 506
e 341 811
e 341 421
e 342 958
e 342 546
e 342 487
e 342 571
e 342 963
e 342 600
e 343 394
e 343 790
e 344 710
e 345 631
e 345 885
e 345 560
e 345 360
e 345 882
e 347 755
e 347 642
e 351 992
e 351 768
e 351 633
e 351 490
e 352 557
e 352 898
e 354 917
e 354 488
e 354 622
e 355 433
e 355 901
e 355 537
e 356 809
e 356 483
e 356 629
e 357 871
e 357 850
e 357 638
e 358 863
e 358 652
e 358 384
e 359 450
e 359 578
e 359 691
e 359 872
e 359 899
e 359 716
e 361 994
e 361 953
e 361 870
e 363 491
e 364 978
e 364 878
e 365 703
e 365 926
e 366 721
e 366 797
e 366 644
e 367 570
e 368 617
e 368 473
e 369 914
e 369 688
e 369 451
e 369 476
e 369 472
e 370 427
e 370 895
e 370 664
e 370 963
e 371 442
e 371 627
e 372 857
e 372 766
e 372 508
e 373 654
e 373 823
e 374 779
e 374 744
e 374 964
e 374 993
e 374 560
e 374 677
e 375 501
e 375 798
e 376 747
e 376 841
e 377 626
e 377 582
e 377 563
e 377 483
e 377 537
e 378 550
e 378 741
e 378 795
e 378 572
e 378 462
e 379 649
e 379 981
e 380 481
e 380 435
e 382 774
e 382 618
e 382 724
e 382 941
e 383 749
e 383 878
e 383 427
e 383 963
e 384 929
e 385 710
e 385 667
e 385 508
e 386 447
e 386 506
e 387 604
e 387 815
e 387 696
e 389 589
e 389 763
e 389 442
e 389 414
e 390 513
e 390 441
e 391 511
e 391 582
e 391 755
e 391 430
e 392 748
e 392 427
e 393 901
e 393 867
e 393 759
e 393 430
e 393 697
e 395 500
e 395 960
e 397 978
e 397 768
e 397 824
e 399 410
e 399 908
e 399 869
e 400 899
e 400 805
e 400 782
e 403 739
e 403 452
e 405 457
e 406 762
e 406 903
e 406 988
e 406 591
e 407 980
e 407 647
e 407 747
e 408 734
e 408 742
e 408 621
e 408 574
e 409 563
e 409 832
e 410 507
e 410 495
e 410 627
e 411 826
e 414 939
e 416 624
e 416 986
e 416 859
e 416 691
e 416 675
e 417 648
e 417 774
e 417 529
e 417 895
e 418 823
e 418 760
e 418 795
e 418 931
e 418 791
e 421 935
e 421 997
e 423 517
e 426 688
e 426 620
e 426 569
e 426 799
e 427 569
e 429 681
e 429 960
e 430 657
e 430 680
e 430 578
e 430 837
e 431 724
e 431 572
e 432 814
e 432 526
e 432 708
e 432 513
e 433 473
e 433 916
e 433 636
e 433 877
e 434 677
e 434 485
e 434 994
e 435 970
e 435 839
e 435 659
e 437 791
e 437 529
e 437 809
e 439 731
e 439 715
e 440 747
e 440 451
e 440 580
e 440 455
e 440 887
e 440 935
e 441 535
e 441 792
e 441 769
e 442 996
e 442 807
e 442 579
e 443 892
e 443 731
e 444 601
e 444 637
e 446 773
e 446 778
e 446 552
e 447 760
e 448 810
e 448 635
e 448 959
e 448 560
e 448 815
e 450 468
e 450 549
e 451 920
e 451 986
e 452 565
e 452 531
e 452 844
e 453 808
e 453 725
e 454 793
e 454 572
e 455 975
e 456 703
e 456 466
e 456 938
e 457 593
e 457 888
e 457 809
e 458 825
e 458 859
e 458 947
e 458 963
e 458 491
e 458 561
e 461 545
e 461 922
e 462 578
e 462 697
e 464 850
e 464 933
e 465 703
e 465 723
e 466 606
e 466 976
e 467 838
e 467 480
e 467 495
e 469 783
e 469 636
e 471 751
e 471 609
e 471 978
e 472 522
e 473 949
e 473 773
e 473 897
e 473 621
e 476 502
e 476 623
e 476 529
e 477 905
e 477 952
e 477 617
e 477 781
e 478 555
e 478 813
e 478 845
e 478 687
e 478 819
e 478 613
e 478 657
e 480 496
e 480 924
e 481 889
e 482 809
e 482 661
e 482 884
e 482 612
e 482 485
e 483 647
e 483 943
e 484 664
e 485 898
e 485 656
e 487 551
e 487 992
e 488 509
e 489 601
e 489 550
e 489 753
e 489 860
e 489 815
e 490 637
e 490 917
e 490 958
e 490 992
e 490 603
e 491 780
e 491 852
e 494 563
e 494 537
e 496 908
e 496 939
e 496 606
e 497 818
e 497 541
e 499 586
e 499 598
e 501 515
e 501 623
e 501 662
e 502 948
e 502 883
e 504 901
e 504 880
e 504 953
e 505 594
e 505 834
e 505 518
e 506 601
e 506 514
e 506 913
e 507 941
e 507 901
e 507 568
e 507 744
e 509 623
e 510 813
e 511 983
e 511 582
e 511 573
e 512 789
e 512 883
e 512 905
e 513 695
e 513 973
e 514 549
e 514 737
e 514 540
e 514 691
e 515 715
e 516 696
e 516 693
e 516 878
e 516 905
e 517 528
e 517 622
e 517 983
e 518 802
e 521 565
e 521 760
e 522 768
e 522 704
e 522 564
e 522 710
e 522 616
e 522 684
e 522 853
e 523 657
e 523 660
e 523 913
e 524 726
e 525 526
e 525 719
e 525 602
e 526 910
e 526 709
e 526 664
e 526 711
e 526 687
e 528 960
e 529 717
e 529 661
e 530 877
e 530 812
e 531 742
e 531 950
e 531 951
e 531 991
e 532 551
e 532 748
e 532 792
e 535 635
e 535 564
e 535 882
e 536 935
e 536 608
e 536 600
e 537 680
e 538 649
e 538 643
e 540 739
e 541 945
e 541 840
e 541 680
e 541 942
e 543 568
e 543 859
e 545 594
e 547 986
e 548 871
e 548 948
e 549 782
e 549 958
e 550 768
e 551 918
e 552 783
e 553 901
e 554 761
e 554 779
e 554 883
e 555 832
e 557 903
e 557 570
e 557 955
e 559 722
e 559 715
e 561 911
e 561 673
e 562 670
e 562 840
e 562 667
e 563 638
e 563 692
e 564 978
e 565 698
e 565 753
e 567 872
e 567 667
e 567 864
e 568 839
e 569 596
e 570 710
e 571 698
e 571 814
e 571 927
e 572 886
e 573 759
e 573 638
e 574 913
e 574 588
e 578 958
e 578 770
e 578 725
e 579 613
e 579 739
e 580 635
e 580 652
e 582 897
e 582 845
e 582 981
e 582 608
e 583 719
e 583 888
e 584 882
e 584 791
e 586 737
e 588 639
e 591 799
e 593 945
e 593 625
e 593 616
e 593 820
e 593 826
e 594 687
e 594 795
e 596 959
e 596 635
e 598 891
e 598 766
e 599 762
e 599 960
e 599 941
e 600 871
e 600 765
e 601 837
e 602 759
e 602 809
e 602 869
e 603 998
e 603 792
e 604 773
e 604 873
e 604 649
e 605 819
e 605 837
e 605 980
e 606 608
e 608 618
e 608 810
e 612 994
e 613 630
e 617 833
e 617 977
e 617 983
e 617 738
e 618 910
e 618 823
e 618 780
e 620 768
e 620 665
e 621 903
e 622 718
e 623 696
e 624 930
e 625 720
e 625 647
e 625 715
e 625 801
e 626 839
e 626 949
e 627 991
e 629 789
e 629 635
e 629 830
e 630 955
e 631 687
e 631 728
e 633 790
e 637 823
e 637 886
e 637 938
e 638 806
e 638 811
e 639 995
e 640 773
e 641 871
e 641 771
e 642 813
e 642 715
e 643 989
e 643 880
e 644 658
e 644 872
e 647 864
e 647 701
e 648 725
e 649 918
e 649 666
e 649 884
e 651 769
e 652 948
e 653 799
e 653 664
e 653 671
e 656 670
e 657 734
e 658 892
e 658 781
e 660 824
e 661 917
e 661 951
e 662 779
e 662 891
e 662 887
e 664 853
e 664 832
e 664 997
e 665 919
e 666 891
e 666 949
e 667 734
e 667 671
e 667 730
e 670 729
e 671 718
e 671 765
e 672 841
e 672 859
e 673 675
e 677 810
e 677 901
e 677 950
e 678 826
e 678 693
e 679 875
e 679 729
e 681 854
e 681 781
e 682 814
e 684 933
e 684 853
e 688 966
e 688 691
e 690 807
e 691 713
e 692 805
e 692 746
e 692 693
e 693 950
e 693 977
e 695 919
e 695 805
e 698 823
e 698 922
e 699 971
e 704 994
e 704 855
e 704 773
e 704 850
e 707 725
e 707 947
e 708 919
e 708 839
e 710 713
e 711 993
e 713 825
e 715 950
e 715 845
e 716 761
e 717 760
e 718 933
e 719 908
e 720 840
e 721 768
e 722 882
e 722 870
e 723 975
e 726 741
e 726 774
e 726 750
e 729 838
e 734 875
e 734 763
e 734 735
e 735 972
e 735 846
e 737 872
e 737 939
e 738 826
e 739 995
e 739 796
e 739 831
e 740 747
e 741 789
e 742 994
e 747 909
e 747 807
e 748 976
e 748 955
e 748 795
e 748 840
e 749 924
e 749 964
e 751 999
e 751 935
e 751 762
e 753 970
e 753 953
e 755 790
e 758 781
e 760 809
e 761 824
e 766 810
e 766 974
e 766 895
e 769 882
e 769 795
e 769 820
e 770 972
e 770 806
e 770 953
e 771 825
e 774 808
e 775 982
e 775 859
e 775 920
e 775 825
e 775 797
e 778 869
e 778 813
e 779 991
e 780 931
e 780 989
e 781 807
e 781 801
e 782 963
e 783 875
e 784 909
e 789 967
e 790 935
e 790 994
e 793 971
e 793 922
e 795 928
e 799 887
e 802 813
e 802 995
e 805 875
e 806 845
e 806 938
e 808 947
e 808 841
e 808 818
e 809 818
e 809 867
e 811 996
e 811 871
e 811 920
e 812 960
e 813 971
e 813 909
e 814 902
e 815 852
e 821 952
e 822 930
e 822 884
e 824 867
e 826 929
e 828 882
e 834 919
e 834 952
e 836 998
e 836 872
e 838 869
e 844 863
e 846 864
e 846 899
e 850 852
e 850 924
e 850 908
e 857 975
e 860 933
e 868 898
e 868 973
e 870 891
e 870 898
e 873 895
e 875 902
e 882 969
e 885 974
e 886 969
e 887 943
e 891 925
e 892 925
e 892 965
e 898 902
e 901 911
e 902 941
e 909 965
e 909 916
e 913 963
e 916 968
e 927 996
e 927 965
e 936 953
e 948 988
e 948 996
e 969 972
e 981 993
e 981 994
